//Dat File

outFile="MPVSBPP_SET1_IT200_ITV2_NT1_TS3_WT1_VT1_REP6";
m=200;
o=42;
p=3;
numVTypes=1;

demand = [4, 2, 10, 7, 6, 6, 11, 1, 9, 5, 1, 5, 7, 6, 5, 9, 4, 4, 3, 5, 10, 9, 6, 5, 1, 8, 2, 8, 1, 4, 6, 10, 7, 10, 10, 10, 7, 8, 4, 6, 7, 10, 9, 1, 6, 2, 3, 3, 1, 3, 8, 3, 8, 9, 2, 4, 6, 8, 2, 3, 6, 5, 4, 3, 8, 10, 9, 8, 2, 8, 8, 4, 7, 2, 7, 1, 1, 1, 11, 10, 1, 11, 9, 2, 1, 1, 6, 7, 2, 10, 3, 8, 9, 3, 3, 7, 5, 9, 6, 2, 17, 12, 17, 12, 17, 19, 14, 14, 14, 12, 13, 18, 12, 15, 18, 13, 12, 19, 14, 15, 17, 17, 14, 14, 19, 15, 15, 15, 15, 13, 14, 19, 14, 19, 16, 14, 16, 15, 14, 18, 19, 12, 13, 16, 13, 15, 12, 12, 17, 16, 19, 19, 19, 17, 16, 14, 16, 15, 17, 19, 17, 19, 15, 17, 18, 14, 17, 19, 13, 14, 12, 18, 14, 18, 14, 13, 14, 13, 16, 13, 16, 14, 14, 18, 12, 16, 15, 15, 12, 16, 17, 17, 14, 17, 15, 17, 16, 18, 16, 13];
Depot_Cap = [30000, 30000, 30000];
Tarif = [10, 3, 7];
VeicVolume = [100];
VeicCost = [100];
VeicType = [1, 1, 1, 1, 1, 1, 1, 1, 1, 1, 1, 1, 1, 1, 1, 1, 1, 1, 1, 1, 1, 1, 1, 1, 1, 1, 1, 1, 1, 1, 1, 1, 1, 1, 1, 1, 1, 1, 1, 1, 1, 1];
Elect_vehicle = [[70, 100, 30], [70, 100, 30], [70, 100, 30], [70, 100, 30], [70, 100, 30], [70, 100, 30], [70, 100, 30], [70, 100, 30], [70, 100, 30], [70, 100, 30], [70, 100, 30], [70, 100, 30], [70, 100, 30], [70, 100, 30], [70, 100, 30], [70, 100, 30], [70, 100, 30], [70, 100, 30], [70, 100, 30], [70, 100, 30], [70, 100, 30], [70, 100, 30], [70, 100, 30], [70, 100, 30], [70, 100, 30], [70, 100, 30], [70, 100, 30], [70, 100, 30], [70, 100, 30], [70, 100, 30], [70, 100, 30], [70, 100, 30], [70, 100, 30], [70, 100, 30], [70, 100, 30], [70, 100, 30], [70, 100, 30], [70, 100, 30], [70, 100, 30], [70, 100, 30], [70, 100, 30], [70, 100, 30]];